set V := a b c d e f;

set E := (b,b) (b,a) (b,c) (d,d) (d,e) (e,e) (f,f) (f,e);

set SP := A B;

param T:= 1;

param u :=
 [A,a,*] 0 0 1 1
 [A,b,*] 0 1 1 1
 [A,c,*] 0 0 1 1
 [A,d,*] 0 1 1 0
 [A,e,*] 0 1 1 1
 [A,f,*] 0 0 1 0
 [B,a,*] 0 0 1 1
 [B,b,*] 0 1 1 1
 [B,c,*] 0 0 1 1
 [B,d,*] 0 1 1 0
 [B,e,*] 0 1 1 1
 [B,f,*] 0 1 1 0;

param nchains := 
A 1 
B 1;



